Problem:    
Rows:       320
Columns:    110 (110 integer, 110 binary)
Non-zeros:  800
Status:     INTEGER OPTIMAL
Objective:  z = 86 (MINimum)

   No.   Row name        Activity     Lower bound   Upper bound
------ ------------    ------------- ------------- -------------
     1 a1a1                        0                           0 
     2 a1a2                        0                           0 
     3 a1a3                        0                           0 
     4 a1a4                        0                           0 
     5 a1a5                        0                           0 
     6 a1a6                        0                           0 
     7 a1a7                       -1                           0 
     8 a1a8                        0                           0 
     9 a1a9                        0                           0 
    10 a1a10                      -1                           0 
    11 a2a1                        0                           0 
    12 a2a2                        0                           0 
    13 a2a3                        0                           0 
    14 a2a4                        0                           0 
    15 a2a5                       -1                           0 
    16 a2a6                        0                           0 
    17 a2a7                        0                           0 
    18 a2a8                        0                           0 
    19 a2a9                        0                           0 
    20 a2a10                      -1                           0 
    21 a3a1                        0                           0 
    22 a3a2                        0                           0 
    23 a3a3                        0                           0 
    24 a3a4                        0                           0 
    25 a3a5                       -1                           0 
    26 a3a6                        0                           0 
    27 a3a7                        0                           0 
    28 a3a8                        0                           0 
    29 a3a9                        0                           0 
    30 a3a10                      -1                           0 
    31 a4a1                        0                           0 
    32 a4a2                        0                           0 
    33 a4a3                        0                           0 
    34 a4a4                        0                           0 
    35 a4a5                       -1                           0 
    36 a4a6                        0                           0 
    37 a4a7                        0                           0 
    38 a4a8                        0                           0 
    39 a4a9                        0                           0 
    40 a4a10                      -1                           0 
    41 a5a1                        0                           0 
    42 a5a2                        0                           0 
    43 a5a3                        0                           0 
    44 a5a4                        0                           0 
    45 a5a5                       -1                           0 
    46 a5a6                        0                           0 
    47 a5a7                       -1                           0 
    48 a5a8                        0                           0 
    49 a5a9                        0                           0 
    50 a5a10                       0                           0 
    51 a6a1                        0                           0 
    52 a6a2                        0                           0 
    53 a6a3                        0                           0 
    54 a6a4                        0                           0 
    55 a6a5                        0                           0 
    56 a6a6                        0                           0 
    57 a6a7                       -1                           0 
    58 a6a8                        0                           0 
    59 a6a9                        0                           0 
    60 a6a10                      -1                           0 
    61 a7a1                        0                           0 
    62 a7a2                        0                           0 
    63 a7a3                        0                           0 
    64 a7a4                        0                           0 
    65 a7a5                        0                           0 
    66 a7a6                        0                           0 
    67 a7a7                       -1                           0 
    68 a7a8                        0                           0 
    69 a7a9                        0                           0 
    70 a7a10                      -1                           0 
    71 a8a1                        0                           0 
    72 a8a2                        0                           0 
    73 a8a3                        0                           0 
    74 a8a4                        0                           0 
    75 a8a5                       -1                           0 
    76 a8a6                        0                           0 
    77 a8a7                       -1                           0 
    78 a8a8                        0                           0 
    79 a8a9                        0                           0 
    80 a8a10                       0                           0 
    81 a9a1                        0                           0 
    82 a9a2                        0                           0 
    83 a9a3                        0                           0 
    84 a9a4                        0                           0 
    85 a9a5                       -1                           0 
    86 a9a6                        0                           0 
    87 a9a7                        0                           0 
    88 a9a8                        0                           0 
    89 a9a9                        0                           0 
    90 a9a10                      -1                           0 
    91 a10a1                       0                           0 
    92 a10a2                       0                           0 
    93 a10a3                       0                           0 
    94 a10a4                       0                           0 
    95 a10a5                      -1                           0 
    96 a10a6                       0                           0 
    97 a10a7                      -1                           0 
    98 a10a8                       0                           0 
    99 a10a9                       0                           0 
   100 a10a10                      0                           0 
   101 b1b2b1                      0                           1 
   102 b1b2b2                      0                           1 
   103 b1b2b3                      0                           1 
   104 b1b2b4                      0                           1 
   105 b1b2b5                      1                           1 
   106 b1b2b6                      0                           1 
   107 b1b2b7                      1                           1 
   108 b1b2b8                      0                           1 
   109 b1b2b9                      0                           1 
   110 b1b2b10                     0                           1 
   111 b1b4b1                      0                           1 
   112 b1b4b2                      0                           1 
   113 b1b4b3                      0                           1 
   114 b1b4b4                      0                           1 
   115 b1b4b5                      1                           1 
   116 b1b4b6                      0                           1 
   117 b1b4b7                      1                           1 
   118 b1b4b8                      0                           1 
   119 b1b4b9                      0                           1 
   120 b1b4b10                     0                           1 
   121 b1b5b1                      0                           1 
   122 b1b5b2                      0                           1 
   123 b1b5b3                      0                           1 
   124 b1b5b4                      0                           1 
   125 b1b5b5                      1                           1 
   126 b1b5b6                      0                           1 
   127 b1b5b7                      0                           1 
   128 b1b5b8                      0                           1 
   129 b1b5b9                      0                           1 
   130 b1b5b10                     1                           1 
   131 b1b9b1                      0                           1 
   132 b1b9b2                      0                           1 
   133 b1b9b3                      0                           1 
   134 b1b9b4                      0                           1 
   135 b1b9b5                      1                           1 
   136 b1b9b6                      0                           1 
   137 b1b9b7                      1                           1 
   138 b1b9b8                      0                           1 
   139 b1b9b9                      0                           1 
   140 b1b9b10                     0                           1 
   141 b2b1b1                      0                           1 
   142 b2b1b2                      0                           1 
   143 b2b1b3                      0                           1 
   144 b2b1b4                      0                           1 
   145 b2b1b5                      1                           1 
   146 b2b1b6                      0                           1 
   147 b2b1b7                      1                           1 
   148 b2b1b8                      0                           1 
   149 b2b1b9                      0                           1 
   150 b2b1b10                     0                           1 
   151 b2b5b1                      0                           1 
   152 b2b5b2                      0                           1 
   153 b2b5b3                      0                           1 
   154 b2b5b4                      0                           1 
   155 b2b5b5                      0                           1 
   156 b2b5b6                      0                           1 
   157 b2b5b7                      1                           1 
   158 b2b5b8                      0                           1 
   159 b2b5b9                      0                           1 
   160 b2b5b10                     1                           1 
   161 b2b8b1                      0                           1 
   162 b2b8b2                      0                           1 
   163 b2b8b3                      0                           1 
   164 b2b8b4                      0                           1 
   165 b2b8b5                      0                           1 
   166 b2b8b6                      0                           1 
   167 b2b8b7                      1                           1 
   168 b2b8b8                      0                           1 
   169 b2b8b9                      0                           1 
   170 b2b8b10                     1                           1 
   171 b3b7b1                      0                           1 
   172 b3b7b2                      0                           1 
   173 b3b7b3                      0                           1 
   174 b3b7b4                      0                           1 
   175 b3b7b5                      1                           1 
   176 b3b7b6                      0                           1 
   177 b3b7b7                      1                           1 
   178 b3b7b8                      0                           1 
   179 b3b7b9                      0                           1 
   180 b3b7b10                     0                           1 
   181 b3b8b1                      0                           1 
   182 b3b8b2                      0                           1 
   183 b3b8b3                      0                           1 
   184 b3b8b4                      0                           1 
   185 b3b8b5                      0                           1 
   186 b3b8b6                      0                           1 
   187 b3b8b7                      1                           1 
   188 b3b8b8                      0                           1 
   189 b3b8b9                      0                           1 
   190 b3b8b10                     1                           1 
   191 b4b1b1                      0                           1 
   192 b4b1b2                      0                           1 
   193 b4b1b3                      0                           1 
   194 b4b1b4                      0                           1 
   195 b4b1b5                      1                           1 
   196 b4b1b6                      0                           1 
   197 b4b1b7                      1                           1 
   198 b4b1b8                      0                           1 
   199 b4b1b9                      0                           1 
   200 b4b1b10                     0                           1 
   201 b4b6b1                      0                           1 
   202 b4b6b2                      0                           1 
   203 b4b6b3                      0                           1 
   204 b4b6b4                      0                           1 
   205 b4b6b5                      1                           1 
   206 b4b6b6                      0                           1 
   207 b4b6b7                      1                           1 
   208 b4b6b8                      0                           1 
   209 b4b6b9                      0                           1 
   210 b4b6b10                     0                           1 
   211 b5b1b1                      0                           1 
   212 b5b1b2                      0                           1 
   213 b5b1b3                      0                           1 
   214 b5b1b4                      0                           1 
   215 b5b1b5                      1                           1 
   216 b5b1b6                      0                           1 
   217 b5b1b7                      0                           1 
   218 b5b1b8                      0                           1 
   219 b5b1b9                      0                           1 
   220 b5b1b10                     1                           1 
   221 b5b2b1                      0                           1 
   222 b5b2b2                      0                           1 
   223 b5b2b3                      0                           1 
   224 b5b2b4                      0                           1 
   225 b5b2b5                      0                           1 
   226 b5b2b6                      0                           1 
   227 b5b2b7                      1                           1 
   228 b5b2b8                      0                           1 
   229 b5b2b9                      0                           1 
   230 b5b2b10                     1                           1 
   231 b6b4b1                      0                           1 
   232 b6b4b2                      0                           1 
   233 b6b4b3                      0                           1 
   234 b6b4b4                      0                           1 
   235 b6b4b5                      1                           1 
   236 b6b4b6                      0                           1 
   237 b6b4b7                      1                           1 
   238 b6b4b8                      0                           1 
   239 b6b4b9                      0                           1 
   240 b6b4b10                     0                           1 
   241 b7b3b1                      0                           1 
   242 b7b3b2                      0                           1 
   243 b7b3b3                      0                           1 
   244 b7b3b4                      0                           1 
   245 b7b3b5                      1                           1 
   246 b7b3b6                      0                           1 
   247 b7b3b7                      1                           1 
   248 b7b3b8                      0                           1 
   249 b7b3b9                      0                           1 
   250 b7b3b10                     0                           1 
   251 b8b2b1                      0                           1 
   252 b8b2b2                      0                           1 
   253 b8b2b3                      0                           1 
   254 b8b2b4                      0                           1 
   255 b8b2b5                      0                           1 
   256 b8b2b6                      0                           1 
   257 b8b2b7                      1                           1 
   258 b8b2b8                      0                           1 
   259 b8b2b9                      0                           1 
   260 b8b2b10                     1                           1 
   261 b8b3b1                      0                           1 
   262 b8b3b2                      0                           1 
   263 b8b3b3                      0                           1 
   264 b8b3b4                      0                           1 
   265 b8b3b5                      0                           1 
   266 b8b3b6                      0                           1 
   267 b8b3b7                      1                           1 
   268 b8b3b8                      0                           1 
   269 b8b3b9                      0                           1 
   270 b8b3b10                     1                           1 
   271 b9b1b1                      0                           1 
   272 b9b1b2                      0                           1 
   273 b9b1b3                      0                           1 
   274 b9b1b4                      0                           1 
   275 b9b1b5                      1                           1 
   276 b9b1b6                      0                           1 
   277 b9b1b7                      1                           1 
   278 b9b1b8                      0                           1 
   279 b9b1b9                      0                           1 
   280 b9b1b10                     0                           1 
   281 b9b10b1                     0                           1 
   282 b9b10b2                     0                           1 
   283 b9b10b3                     0                           1 
   284 b9b10b4                     0                           1 
   285 b9b10b5                     0                           1 
   286 b9b10b6                     0                           1 
   287 b9b10b7                     1                           1 
   288 b9b10b8                     0                           1 
   289 b9b10b9                     0                           1 
   290 b9b10b10                    1                           1 
   291 b10b9b1                     0                           1 
   292 b10b9b2                     0                           1 
   293 b10b9b3                     0                           1 
   294 b10b9b4                     0                           1 
   295 b10b9b5                     0                           1 
   296 b10b9b6                     0                           1 
   297 b10b9b7                     1                           1 
   298 b10b9b8                     0                           1 
   299 b10b9b9                     0                           1 
   300 b10b9b10                    1                           1 
   301 c1                          1             1             = 
   302 c2                          1             1             = 
   303 c3                          1             1             = 
   304 c4                          1             1             = 
   305 c5                          1             1             = 
   306 c6                          1             1             = 
   307 c7                          1             1             = 
   308 c8                          1             1             = 
   309 c9                          1             1             = 
   310 c10                         1             1             = 
   311 d1                          0                           7 
   312 d2                          0                           6 
   313 d3                          0                           8 
   314 d4                          0                          10 
   315 d5                          3                           5 
   316 d6                          0                           6 
   317 d7                          4                           5 
   318 d8                          0                           8 
   319 d9                          0                           9 
   320 d10                         3                           3 

   No. Column name       Activity     Lower bound   Upper bound
------ ------------    ------------- ------------- -------------
     1 x1           *              0             0             1 
     2 x2           *              0             0             1 
     3 x3           *              0             0             1 
     4 x4           *              0             0             1 
     5 x5           *              1             0             1 
     6 x6           *              0             0             1 
     7 x7           *              1             0             1 
     8 x8           *              0             0             1 
     9 x9           *              0             0             1 
    10 x10          *              1             0             1 
    11 y1,1         *              0             0             1 
    12 y1,2         *              0             0             1 
    13 y1,3         *              0             0             1 
    14 y1,4         *              0             0             1 
    15 y1,5         *              1             0             1 
    16 y1,6         *              0             0             1 
    17 y1,7         *              0             0             1 
    18 y1,8         *              0             0             1 
    19 y1,9         *              0             0             1 
    20 y1,10        *              0             0             1 
    21 y2,1         *              0             0             1 
    22 y2,2         *              0             0             1 
    23 y2,3         *              0             0             1 
    24 y2,4         *              0             0             1 
    25 y2,5         *              0             0             1 
    26 y2,6         *              0             0             1 
    27 y2,7         *              1             0             1 
    28 y2,8         *              0             0             1 
    29 y2,9         *              0             0             1 
    30 y2,10        *              0             0             1 
    31 y3,1         *              0             0             1 
    32 y3,2         *              0             0             1 
    33 y3,3         *              0             0             1 
    34 y3,4         *              0             0             1 
    35 y3,5         *              0             0             1 
    36 y3,6         *              0             0             1 
    37 y3,7         *              1             0             1 
    38 y3,8         *              0             0             1 
    39 y3,9         *              0             0             1 
    40 y3,10        *              0             0             1 
    41 y4,1         *              0             0             1 
    42 y4,2         *              0             0             1 
    43 y4,3         *              0             0             1 
    44 y4,4         *              0             0             1 
    45 y4,5         *              0             0             1 
    46 y4,6         *              0             0             1 
    47 y4,7         *              1             0             1 
    48 y4,8         *              0             0             1 
    49 y4,9         *              0             0             1 
    50 y4,10        *              0             0             1 
    51 y5,1         *              0             0             1 
    52 y5,2         *              0             0             1 
    53 y5,3         *              0             0             1 
    54 y5,4         *              0             0             1 
    55 y5,5         *              0             0             1 
    56 y5,6         *              0             0             1 
    57 y5,7         *              0             0             1 
    58 y5,8         *              0             0             1 
    59 y5,9         *              0             0             1 
    60 y5,10        *              1             0             1 
    61 y6,1         *              0             0             1 
    62 y6,2         *              0             0             1 
    63 y6,3         *              0             0             1 
    64 y6,4         *              0             0             1 
    65 y6,5         *              1             0             1 
    66 y6,6         *              0             0             1 
    67 y6,7         *              0             0             1 
    68 y6,8         *              0             0             1 
    69 y6,9         *              0             0             1 
    70 y6,10        *              0             0             1 
    71 y7,1         *              0             0             1 
    72 y7,2         *              0             0             1 
    73 y7,3         *              0             0             1 
    74 y7,4         *              0             0             1 
    75 y7,5         *              1             0             1 
    76 y7,6         *              0             0             1 
    77 y7,7         *              0             0             1 
    78 y7,8         *              0             0             1 
    79 y7,9         *              0             0             1 
    80 y7,10        *              0             0             1 
    81 y8,1         *              0             0             1 
    82 y8,2         *              0             0             1 
    83 y8,3         *              0             0             1 
    84 y8,4         *              0             0             1 
    85 y8,5         *              0             0             1 
    86 y8,6         *              0             0             1 
    87 y8,7         *              0             0             1 
    88 y8,8         *              0             0             1 
    89 y8,9         *              0             0             1 
    90 y8,10        *              1             0             1 
    91 y9,1         *              0             0             1 
    92 y9,2         *              0             0             1 
    93 y9,3         *              0             0             1 
    94 y9,4         *              0             0             1 
    95 y9,5         *              0             0             1 
    96 y9,6         *              0             0             1 
    97 y9,7         *              1             0             1 
    98 y9,8         *              0             0             1 
    99 y9,9         *              0             0             1 
   100 y9,10        *              0             0             1 
   101 y10,1        *              0             0             1 
   102 y10,2        *              0             0             1 
   103 y10,3        *              0             0             1 
   104 y10,4        *              0             0             1 
   105 y10,5        *              0             0             1 
   106 y10,6        *              0             0             1 
   107 y10,7        *              0             0             1 
   108 y10,8        *              0             0             1 
   109 y10,9        *              0             0             1 
   110 y10,10       *              1             0             1 

Integer feasibility conditions:

KKT.PE: max.abs.err = 0.00e+00 on row 0
        max.rel.err = 0.00e+00 on row 0
        High quality

KKT.PB: max.abs.err = 0.00e+00 on row 0
        max.rel.err = 0.00e+00 on row 0
        High quality

End of output
